proyfinal/src/viki/013/experimentInOfficeAgust.take6.output/6e84bcd6-5e6e-4dca-92e9-e1cbed39061a.als.out
Reading from standard input... Use '--help' for help.
============================[ Problem Statistics ]=============================
|                                                                             |
|  Number of variables:         87638                                         |
|  Number of clauses:          161767                                         |
|  Parse time:                   0.04 s                                       |
|                                                                             |
============================[ Search Statistics ]==============================
| Conflicts |          ORIGINAL         |          LEARNT          | Progress |
|           |    Vars  Clauses Literals |    Limit  Clauses Lit/Cl |          |
===============================================================================
|       100 |   62380   105156   262762 |    38557      100     10 | 28.821 % |
|       250 |   62372   105114   262660 |    42412      249     18 | 28.830 % |
|       475 |   62372   105114   262660 |    46654      474     45 | 28.830 % |
|       812 |   62372   105114   262660 |    51319      811     47 | 28.830 % |
|      1318 |   62366   105074   262548 |    56451     1316     62 | 28.837 % |
|      2077 |   49873    69501   174728 |    62096     2028     62 | 43.092 % |
|      3216 |   49659    68642   172639 |    68306     3131     62 | 43.336 % |
|      4924 |   49411    67631   170233 |    75137     4728     59 | 43.619 % |
|      7486 |   49008    65977   166296 |    82650     7178     56 | 44.079 % |
|     11330 |   48763    64808   163528 |    90915     9397     51 | 44.359 % |
===============================================================================
restarts              : 49
conflicts             : 11494          (8555 /sec)
decisions             : 40350          (0.00 % random) (30033 /sec)
propagations          : 14772553       (10995426 /sec)
conflict literals     : 559800         (41.73 % deleted)
Memory used           : 25.98 MB
CPU time              : 1.34352 s

UNSATISFIABLE
